c [MSE2022] -- begin -- [MSE2022]
0.00/0.01	c
0.00/0.01	c NuWLS based on TT-Open-WBO-Inc:	 an Anytime MaxSAT Solver --- based on Glucose4.1 (core version)
0.00/0.01	c Version:	 MaxSAT Evaluation 2021
0.00/0.01	c Author of NuWLS:	 Yi Chu, Xiang He
0.00/0.01	c Author of TT-Open-WBO-Inc:	 Alexander Nadel
0.00/0.01	c Authors of the baseline solver Open-WBO-Inc:	 Saurabh Joshi, Prateek Kumar, Ruben Martins, Sukrut Rao
0.00/0.01	c WARNING: for repeatability, setting FPU to use double precision
0.00/0.01	c |                                                                                                       |
0.00/0.01	c ========================================[ Problem Statistics ]===========================================
0.00/0.01	c |                                                                                                       |
0.00/0.01	c |  Problem Format:             MaxSAT                                                                   |
0.00/0.01	c |  Problem Type:           Unweighted                                                                   |
0.00/0.01	c |  Number of variables:          2891                                                                   |
0.00/0.01	c |  Number of hard clauses:          0                                                                   |
0.00/0.01	c |  Number of soft clauses:       8027                                                                   |
0.00/0.01	c |  Number of cardinality:           0                                                                   |
0.00/0.01	c |  Number of PB :                   0                                                                   |
0.00/0.01	c |  Parse time:                   0.00 s                                                                 |
0.00/0.01	c |                                                                                                       |
0.00/0.01	c | best-alg-selector overriden target_vars_bump_val to 0, since it hadn't been set by the user |
0.00/0.01	c | best-alg-selector overriden ms_model_per_sec_thr to 2, since it hadn't been set by the user |
0.00/0.01	c | best-alg-selector overriden ms_mutation_classes to 0, since it hadn't been set by the user |
0.00/0.01	c | best-alg-selector overriden ms_chrono to 100, since it hadn't been set by the user |
0.00/0.01	c ==========================================[ Solver Settings ]============================================
0.00/0.01	c |                                                                                                       |
0.00/0.01	c |  Algorithm:                     OBV                                                                   |
0.00/0.01	c |  Cardinality Encoding:       Modulo Totalizer                                                         |
0.00/0.01	c |  Limit number conflicts:       1000                                                                   |
0.00/0.01	c |  Limit number iterations: 2147483647                                                                   |
0.00/0.01	c |  Global limit number conflicts:   F                                                                   |
0.00/0.01	c |                                                                                                       |
0.00/0.01	c Mrs. Beaver incomplete stage
0.00/0.01	o 697
0.00/0.01	c total_lit_count 18945
0.00/0.01	c before build neighbor
0.00/0.01	c build instime is 0
0.00/0.01	c using neighbor 
0.00/0.01	c build NuWLS instance done!
0.00/0.01	c changing to NuWLS solver!!!
0.00/0.01	c problem weighted = 0
0.00/0.01	o 697
0.00/0.01	o 693
0.00/0.01	o 690
0.00/0.01	o 687
0.00/0.01	o 685
0.00/0.01	o 683
0.00/0.01	o 681
0.00/0.01	o 679
0.00/0.01	o 677
0.00/0.01	o 675
0.00/0.01	o 673
0.00/0.01	o 671
0.00/0.01	o 669
0.00/0.01	o 667
0.00/0.01	o 665
0.00/0.01	o 663
0.00/0.01	o 661
0.00/0.01	o 659
0.00/0.01	o 657
0.00/0.01	o 655
0.00/0.01	o 653
0.00/0.01	o 651
0.00/0.01	o 649
0.00/0.01	o 647
0.00/0.01	o 645
0.00/0.01	o 643
0.00/0.01	o 641
0.00/0.01	o 639
0.00/0.01	o 637
0.00/0.01	o 635
0.00/0.01	o 634
0.00/0.01	o 633
0.00/0.01	o 632
0.00/0.01	o 631
0.00/0.01	o 629
0.00/0.01	o 628
0.00/0.01	o 627
0.00/0.01	o 626
0.00/0.01	o 625
0.00/0.01	o 624
0.00/0.01	o 623
0.00/0.01	o 622
0.00/0.01	o 621
0.00/0.01	o 620
0.00/0.01	o 619
0.00/0.01	o 618
0.00/0.01	o 617
0.00/0.01	o 616
0.00/0.01	o 615
0.00/0.01	o 614
0.00/0.01	o 613
0.00/0.02	o 612
0.00/0.02	o 611
0.00/0.02	o 610
0.00/0.02	o 609
0.00/0.02	o 608
0.00/0.02	o 607
0.00/0.02	o 606
0.00/0.02	o 605
0.00/0.02	o 604
0.00/0.02	o 603
0.00/0.02	o 602
0.00/0.02	o 601
0.00/0.02	o 600
0.00/0.02	o 599
0.00/0.02	o 598
0.00/0.02	o 597
0.00/0.02	o 596
0.00/0.02	o 595
0.00/0.02	o 594
0.00/0.02	o 593
0.00/0.02	o 592
0.00/0.02	o 590
0.00/0.02	o 589
0.00/0.02	o 588
0.00/0.02	o 587
0.00/0.02	o 586
0.00/0.02	o 584
0.00/0.02	o 583
0.00/0.02	o 582
0.00/0.02	o 581
0.00/0.02	o 580
0.00/0.02	o 579
0.00/0.02	o 578
0.00/0.02	o 577
0.00/0.02	o 576
0.00/0.02	o 575
0.00/0.02	o 574
0.00/0.02	o 573
0.00/0.02	o 572
0.00/0.02	o 571
0.00/0.02	o 570
0.00/0.02	o 569
0.00/0.02	o 567
0.00/0.02	o 566
0.00/0.02	o 565
0.00/0.02	o 564
0.00/0.02	o 563
0.00/0.02	o 562
0.00/0.02	o 561
0.00/0.02	o 560
0.00/0.02	o 559
0.00/0.02	o 558
0.00/0.02	o 557
0.00/0.02	o 556
0.00/0.02	o 555
0.00/0.02	o 554
0.00/0.02	o 553
0.00/0.02	o 552
0.00/0.02	o 551
0.00/0.02	o 550
0.00/0.02	o 549
0.00/0.02	o 548
0.00/0.02	o 547
0.00/0.02	o 546
0.00/0.02	o 545
0.00/0.02	o 544
0.00/0.02	o 543
0.00/0.02	o 542
0.00/0.02	o 541
0.00/0.02	o 540
0.00/0.02	o 539
0.00/0.02	o 538
0.00/0.02	o 537
0.00/0.02	o 536
0.00/0.02	o 535
0.00/0.02	o 534
0.00/0.02	o 533
0.00/0.03	o 532
0.00/0.03	o 531
0.00/0.03	o 530
0.00/0.03	o 529
0.00/0.03	o 528
0.00/0.03	o 527
0.00/0.03	o 526
0.00/0.03	o 525
0.00/0.03	o 524
0.00/0.03	o 523
0.00/0.03	o 522
0.00/0.03	o 521
0.00/0.03	o 520
0.00/0.03	o 519
0.00/0.03	o 518
0.00/0.03	o 517
0.00/0.03	o 516
0.00/0.03	o 515
0.00/0.03	o 514
0.00/0.03	o 513
0.00/0.03	o 512
0.00/0.03	o 511
0.00/0.03	o 510
0.00/0.03	o 509
0.00/0.03	o 508
0.00/0.03	o 507
0.00/0.03	o 506
0.00/0.03	o 505
0.00/0.03	o 504
0.00/0.03	o 503
0.00/0.03	o 502
0.00/0.03	o 501
0.00/0.03	o 500
0.00/0.03	o 499
0.00/0.03	o 498
0.00/0.03	o 497
0.00/0.03	o 496
0.00/0.03	o 495
0.00/0.03	o 494
0.00/0.03	o 493
0.00/0.03	o 492
0.00/0.03	o 491
0.00/0.03	o 490
0.00/0.03	o 489
0.00/0.03	o 488
0.00/0.03	o 487
0.00/0.03	o 486
0.00/0.03	o 485
0.00/0.03	o 484
0.00/0.03	o 483
0.00/0.03	o 482
0.00/0.03	o 481
0.00/0.03	o 480
0.00/0.03	o 479
0.00/0.03	o 478
0.00/0.03	o 477
0.00/0.03	o 476
0.00/0.03	o 475
0.00/0.03	o 474
0.00/0.03	o 473
0.00/0.03	o 472
0.00/0.03	o 471
0.00/0.03	o 470
0.00/0.03	o 469
0.00/0.03	o 468
0.00/0.03	o 467
0.00/0.03	o 466
0.00/0.03	o 465
0.00/0.03	o 464
0.00/0.03	o 463
0.00/0.03	o 462
0.00/0.03	o 461
0.00/0.03	o 460
0.00/0.03	o 459
0.00/0.03	o 458
0.00/0.03	o 457
0.00/0.04	o 456
0.00/0.04	o 455
0.00/0.04	o 454
0.00/0.04	o 453
0.00/0.04	o 452
0.00/0.04	o 451
0.00/0.04	o 450
0.00/0.04	o 449
0.00/0.04	o 448
0.00/0.04	o 447
0.00/0.04	o 446
0.00/0.04	o 445
0.00/0.04	o 444
0.00/0.04	o 443
0.00/0.04	o 442
0.00/0.04	o 441
0.00/0.04	o 440
0.00/0.04	o 439
0.00/0.04	o 438
0.00/0.04	o 437
0.00/0.04	o 436
0.00/0.04	o 435
0.00/0.04	o 434
0.00/0.04	o 433
0.00/0.04	o 432
0.00/0.04	o 431
0.00/0.04	o 430
0.00/0.04	o 429
0.00/0.04	o 428
0.00/0.04	o 427
0.00/0.04	o 426
0.00/0.04	o 425
0.00/0.04	o 424
0.00/0.04	o 423
0.00/0.04	o 422
0.00/0.04	o 421
0.00/0.04	o 420
0.00/0.04	o 419
0.00/0.04	o 418
0.00/0.04	o 417
0.00/0.04	o 416
0.00/0.04	o 415
0.00/0.04	o 414
0.00/0.04	o 413
0.00/0.04	o 412
0.00/0.04	o 411
0.00/0.04	o 410
0.00/0.04	o 409
0.00/0.04	o 408
0.00/0.04	o 407
0.00/0.04	o 406
0.00/0.04	o 405
0.00/0.04	o 404
0.00/0.04	o 403
0.00/0.04	o 402
0.00/0.04	o 401
0.00/0.04	o 400
0.00/0.04	o 399
0.00/0.04	o 398
0.00/0.04	o 397
0.00/0.04	o 396
0.00/0.04	o 395
0.00/0.04	o 394
0.00/0.04	o 393
0.00/0.04	o 392
0.00/0.04	o 391
0.00/0.04	o 390
0.00/0.04	o 389
0.00/0.04	o 388
0.00/0.04	o 387
0.00/0.04	o 386
0.00/0.05	o 385
0.00/0.05	o 384
0.00/0.05	o 383
0.00/0.05	o 382
0.00/0.05	o 381
0.00/0.05	o 380
0.00/0.05	o 379
0.00/0.05	o 378
0.00/0.05	o 377
0.00/0.05	o 376
0.09/0.07	s SATISFIABLE
0.09/0.07	o 376 
0.09/0.07	v 10111110000010001001001101101011000011110100010100101110111000111101100000000001100011000001100111110000000001101011100011010010101100100101000101011001000101111101110001010110001001010100100010101011111010010001111010011110110010110110001011010001010010100111110001101111011100001110011000101010001110101100001000011001001001010100100101001001100000100010010101100011111111000011000110101000000110010010011000000110010011010010100010000000110001111110111000101101101101111110101101111110000000110010000001110110011000000011010111111100101101110101010110000010111011110111100001100010010000001000101101111111010010111100010010100101000101101001101101001011101000101111001010010000011001111110001111100010111001111100001110100001010001110110101000101110011110101101011011000010101111000000001110010111011000100000010010000000010001001110010111101010111001100010101000000100111001100010101101111010011111000011111010000101011011000010101101101101101110100010101001011000111110010011001001100001101000010000001100110111001000101011110000001101010111101011001010001010111101101110100100100110110010000001101001010100010010000001101001101100001011100100101101011001101110010110100001110100111100000111000100110100001001110111101111001110010001010000000000001001000101111001010000001001001101001110101010011010010101100111101110110101011010101101001110101011000111100011101010001011101000010111001000001001001011000100010001000100001000000101100000011111010111000101110011100010111100010101011010110010110010110101010111010111101100001110011010001001100010010000111010010010000101100110110011110010001001111110010001001100111100011010110001000101001100011110110100001011101010100000101001001111111111001000110101110110011000000010010111000011000010011101000111010111001101110101001100101100010101001110101100000011011101110000111101001001011111010100111001000001010101101001100100011110010011101111011001100101101001001011010100101001000001111001100101100100010100001011001101001111111110100111100100011010101110111001001011110100010110110111001010000101001101101011010111101100011111110011101000010110011001000010010011101001111110010010000110011010010011000110111100101011100110101110000000111100011001010010110110110011011111000001000000100100001110101110010100100101010000000011111101100110001010000110011111001110110110101010111110000010101000110100010100100000011100101111110000101000001011001100000000010100111011101011010011001010011010001000000000001001110101000100010011100001010000110101001000111011001111101111010000111110010101100100011100110110101110010100010000011001000000010000011001111000100111010111000101110101000100000101100010000010110100111101011110111011011101011100001011010110111001000011001000010111101011000111110010111001100110000111111000000101110101101101101111001010111000100101000100001110110011010001100000111001000011110111111010101110101010100110110000001011000
c [MSE2022] -- end -- [MSE2022]
